p cnf 150 200
33 37 43 51 0
33 37 43 -51 0
21 -37 43 52 0
21 -37 43 -52 0
-21 -37 39 53 0
-21 -37 39 -53 0
23 39 -43 54 0
23 39 -43 -54 0
13 -23 31 55 0
13 -23 31 -55 0
-13 -23 31 56 0
-13 -23 31 -56 0
-23 -31 -43 57 0
-23 -31 -43 -57 0
6 9 25 58 0
6 9 25 -58 0
-6 9 25 59 0
-6 9 25 -59 0
9 33 -38 60 0
9 33 -38 -60 0
-9 25 -39 61 0
-9 25 -39 -61 0
24 -25 -39 62 0
24 -25 -39 -62 0
-24 -25 33 63 0
-24 -25 33 -63 0
6 27 41 64 0
6 27 41 -64 0
-6 14 41 65 0
-6 14 41 -65 0
14 -41 43 66 0
14 -41 43 -66 0
14 -41 -43 67 0
14 -41 -43 -67 0
1 20 27 68 0
1 20 27 -68 0
1 12 -20 69 0
1 12 -20 -69 0
1 -12 -14 70 0
1 -12 -14 -70 0
-1 27 28 71 0
-1 27 28 -71 0
-1 -14 -28 72 0
-1 -14 -28 -72 0
-1 -11 -14 73 0
-1 -11 -14 -73 0
-27 -33 39 74 0
-27 -33 39 -74 0
5 20 28 75 0
5 20 28 -75 0
19 29 -33 76 0
19 29 -33 -76 0
-19 -20 29 77 0
-19 -20 29 -77 0
-20 28 -29 78 0
-20 28 -29 -78 0
5 -28 37 79 0
5 -28 37 -79 0
5 -28 -37 80 0
5 -28 -37 -80 0
-5 -33 -39 81 0
-5 -33 -39 -81 0
7 17 22 82 0
7 17 22 -82 0
-5 7 17 83 0
-5 7 17 -83 0
-7 18 22 84 0
-7 18 22 -84 0
22 -24 41 85 0
22 -24 41 -85 0
-7 12 18 86 0
-7 12 18 -86 0
-12 18 34 87 0
-12 18 34 -87 0
-12 34 -42 88 0
-12 34 -42 -88 0
-7 -34 -41 89 0
-7 -34 -41 -89 0
-16 -29 35 90 0
-16 -29 35 -90 0
-3 13 -29 91 0
-3 13 -29 -91 0
-21 -30 37 92 0
-21 -30 37 -92 0
-15 -21 47 93 0
-15 -21 47 -93 0
-8 24 40 94 0
-8 24 40 -94 0
-3 -8 42 95 0
-3 -8 42 -95 0
-3 -8 -42 96 0
-3 -8 -42 -96 0
-2 30 36 97 0
-2 30 36 -97 0
-2 -30 36 98 0
-2 -30 36 -98 0
-4 -35 44 99 0
-4 -35 44 -99 0
42 -45 -50 100 0
42 -45 -50 -100 0
-42 -45 -50 101 0
-42 -45 -50 -101 0
-11 15 -40 102 0
-11 15 -40 -102 0
3 46 48 103 0
3 46 48 -103 0
3 -46 48 104 0
3 -46 48 -104 0
-11 30 50 105 0
-11 30 50 -105 0
-16 30 50 106 0
-16 30 50 -106 0
4 -36 -40 107 0
4 -36 -40 -107 0
8 46 47 108 0
8 46 47 -108 0
24 -40 44 109 0
24 -40 44 -109 0
12 16 -46 110 0
12 16 -46 -110 0
2 6 -36 111 0
2 6 -36 -111 0
-6 -44 46 112 0
-6 -44 46 -112 0
-22 32 -36 113 0
-22 32 -36 -113 0
3 32 38 114 0
3 32 38 -114 0
-27 -35 38 115 0
-27 -35 38 -115 0
11 16 -47 116 0
11 16 -47 -116 0
31 -45 -46 117 0
31 -45 -46 -117 0
19 -24 32 118 0
19 -24 32 -118 0
-15 23 -31 119 0
-15 23 -31 -119 0
4 -34 -49 120 0
4 -34 -49 -120 0
11 -22 -49 121 0
11 -22 -49 -121 0
23 -26 50 122 0
23 -26 50 -122 0
-9 -31 -32 123 0
-9 -31 -32 -123 0
-2 -27 35 124 0
-2 -27 35 -124 0
26 34 45 125 0
26 34 45 -125 0
7 36 47 126 0
7 36 47 -126 0
-4 -30 49 127 0
-4 -30 49 -127 0
-26 -44 -50 128 0
-26 -44 -50 -128 0
2 40 48 129 0
2 40 48 -129 0
26 -44 -47 130 0
26 -44 -47 -130 0
-18 19 -25 131 0
-18 19 -25 -131 0
-38 42 49 132 0
-38 42 49 -132 0
13 -22 49 133 0
13 -22 49 -133 0
-10 -32 -48 134 0
-10 -32 -48 -134 0
2 -19 29 135 0
2 -19 29 -135 0
-13 -15 26 136 0
-13 -15 26 -136 0
-10 -17 20 137 0
-10 -17 20 -137 0
-17 21 45 138 0
-17 21 45 -138 0
-4 -13 -26 139 0
-4 -13 -26 -139 0
-9 21 -48 140 0
-9 21 -48 -140 0
-10 35 44 141 0
-10 35 44 -141 0
-32 -48 -49 142 0
-32 -48 -49 -142 0
4 -16 -19 143 0
4 -16 -19 -143 0
-5 8 40 144 0
-5 8 40 -144 0
15 -18 -35 145 0
15 -18 -35 -145 0
8 10 -47 146 0
8 10 -47 -146 0
10 15 45 147 0
10 15 45 -147 0
10 -18 -34 148 0
10 -18 -34 -148 0
16 17 38 149 0
16 17 38 -149 0
11 -17 -38 150 0
11 -17 -38 -150 0

